Version identifier: 22.1.0.0 | 2022-03-09 | 1a383f8ce
CPXPARAM_Read_DataCheck                          1
CPXPARAM_Threads                                 1
CPXPARAM_TimeLimit                               3600
Tried aggregator 2 times.
MIP Presolve eliminated 1060 rows and 148 columns.
MIP Presolve modified 2866 coefficients.
Aggregator did 9 substitutions.
Reduced MIP has 362 rows, 83 columns, and 1547 nonzeros.
Reduced MIP has 41 binaries, 0 generals, 0 SOSs, and 0 indicators.
Presolve time = 0.01 sec. (4.19 ticks)
Found incumbent of value 74.252581 after 0.01 sec. (5.61 ticks)
Probing fixed 1 vars, tightened 11 bounds.
Probing time = 0.00 sec. (0.56 ticks)
Tried aggregator 1 time.
Detecting symmetries...
MIP Presolve eliminated 11 rows and 1 columns.
MIP Presolve modified 65 coefficients.
Reduced MIP has 351 rows, 82 columns, and 1495 nonzeros.
Reduced MIP has 40 binaries, 0 generals, 0 SOSs, and 0 indicators.
Presolve time = 0.00 sec. (1.12 ticks)
Probing time = 0.00 sec. (0.53 ticks)
Clique table members: 212.
MIP emphasis: balance optimality and feasibility.
MIP search method: dynamic search.
Parallel mode: none, using 1 thread.
Root relaxation solution time = 0.00 sec. (1.20 ticks)

        Nodes                                         Cuts/
   Node  Left     Objective  IInf  Best Integer    Best Bound    ItCnt     Gap

*     0+    0                           74.2526       67.1338             9.59%
      0     0       67.1338    23       74.2526       67.1338       75    9.59%
*     0+    0                           67.1813       67.1338             0.07%
*     0     0      integral     0       67.1338      Cuts: 37      139    0.00%
      0     0        cutoff             67.1338       67.1338      139    0.00%
Elapsed time = 0.03 sec. (13.24 ticks, tree = 0.01 MB, solutions = 3)

Clique cuts applied:  3
Cover cuts applied:  1
Implied bound cuts applied:  9
Mixed integer rounding cuts applied:  9
Gomory fractional cuts applied:  2

Root node processing (before b&c):
  Real time             =    0.03 sec. (13.26 ticks)
Sequential b&c:
  Real time             =    0.00 sec. (0.00 ticks)
                          ------------
Total (root+branch&cut) =    0.03 sec. (13.26 ticks)
